solution status: optimal solution found
objective value:                     175869.048755099
d11(0,0)                                            1 	(obj:0)
d11(1,1)                                            1 	(obj:0)
d11(2,3)                                            1 	(obj:0)
d11(2,4)                                            1 	(obj:0)
d11(2,5)                                            1 	(obj:0)
d11(2,6)                                            1 	(obj:0)
d11(3,7)                                            1 	(obj:0)
d11(3,8)                                            1 	(obj:0)
d11(3,9)                                            1 	(obj:0)
d11(3,11)                                           1 	(obj:0)
d11(3,12)                                           1 	(obj:0)
d11(3,13)                                           1 	(obj:0)
d11(4,15)                                           1 	(obj:0)
d11(4,16)                                           1 	(obj:0)
d11(4,17)                                           1 	(obj:0)
d11(4,18)                                           1 	(obj:0)
d11(4,19)                                           1 	(obj:0)
d11(4,20)                                           1 	(obj:0)
d11(4,21)                                           1 	(obj:0)
d11(4,22)                                           1 	(obj:0)
d11(4,23)                                           1 	(obj:0)
d11(4,24)                                           1 	(obj:0)
d11(4,25)                                           1 	(obj:0)
d11(4,26)                                           1 	(obj:0)
d11(4,27)                                           1 	(obj:0)
d11(4,28)                                           1 	(obj:0)
d11(4,29)                                           1 	(obj:0)
d11(4,30)                                           1 	(obj:0)
d21(3,7)                                            1 	(obj:0)
d21(4,15)                                           1 	(obj:0)
d21(4,16)                                           1 	(obj:0)
d21(4,17)                                           1 	(obj:0)
d21(4,19)                                           1 	(obj:0)
d21(4,23)                                           1 	(obj:0)
STE(1,1)                             8484.75010111118 	(obj:0)
STE(0,0)                                        11025 	(obj:0)
STE(1,2)                                        10143 	(obj:0)
STE(2,3)                             5071.50000000034 	(obj:0)
STE(2,4)                             6729.74989888917 	(obj:0)
STE(2,5)                             6729.74989888916 	(obj:0)
STE(2,6)                             8387.99979777797 	(obj:0)
STE(3,7)                             2531.25010111153 	(obj:0)
STE(3,8)                             4189.50000000035 	(obj:0)
STE(3,9)                             4189.50000000036 	(obj:0)
STE(3,10)                            5847.74989888917 	(obj:0)
STE(3,11)                            4189.50000000034 	(obj:0)
STE(3,12)                            5847.74989888917 	(obj:0)
STE(3,13)                            5847.74989888917 	(obj:0)
STE(3,14)                            7505.99979777798 	(obj:0)
STE(4,15)                           -8.99979777763527 	(obj:0)
STE(4,16)                            1649.25010111118 	(obj:0)
STE(4,17)                            1649.25010111118 	(obj:0)
STE(4,18)                                      3307.5 	(obj:0)
STE(4,19)                            1649.25010111119 	(obj:0)
STE(4,20)                            3307.50000000001 	(obj:0)
STE(4,21)                                      3307.5 	(obj:0)
STE(4,22)                            4965.74989888874 	(obj:0)
STE(4,23)                            1649.25010111117 	(obj:0)
STE(4,24)                            3307.49999999999 	(obj:0)
STE(4,25)                            3307.49999999997 	(obj:0)
STE(4,26)                            4965.74989888882 	(obj:0)
STE(4,27)                                      3307.5 	(obj:0)
STE(4,28)                            4965.74989888882 	(obj:0)
STE(4,29)                            4965.74989888881 	(obj:0)
STE(4,30)                            6623.99979777763 	(obj:0)
y1(3,11)                             1492.42490899993 	(obj:0)
y1(3,13)                             1492.42490899993 	(obj:0)
y1(4,15)                             1492.42490900025 	(obj:0)
y1(4,17)                             1492.42490900025 	(obj:0)
y1(4,19)                             1492.42490900025 	(obj:0)
y1(4,21)                             1492.42490900025 	(obj:0)
y1(4,23)                             1492.42490900025 	(obj:0)
y1(4,25)                             1492.42490900028 	(obj:0)
y1(4,27)                             1492.42490900025 	(obj:0)
y1(4,29)                             1492.42490900025 	(obj:0)
WB(1)                                3265.91696791192 	(obj:0)
AVE(1)                               3265.91696791192 	(obj:0)
AVE(2)                               3332.74178563731 	(obj:0)
WB(3)                                3444.11697932125 	(obj:0)
AVE(3)                               3444.11697932125 	(obj:0)
AVE(4)                               3399.56511093778 	(obj:0)
WG(2)                                3332.74178563731 	(obj:10)
WG(4)                                3399.56511093778 	(obj:10)
BG(1)                                4196.29249897956 	(obj:10)
BG(2)                                1665.28559293391 	(obj:10)
BG(3)                                4196.29249897947 	(obj:10)
BG(4)                                796.727388042107 	(obj:10)
y1(1,1)                              1492.42490899993 	(obj:0)
y1(2,3)                              2278.12509099976 	(obj:0)
y1(2,4)                              785.700181999814 	(obj:0)
y1(2,5)                              2278.12509099976 	(obj:0)
y1(2,6)                              785.700181999824 	(obj:0)
y1(3,7)                              1492.42490899993 	(obj:0)
y1(3,9)                              1492.42490899993 	(obj:0)
